NAME          
ROWS
 N  OBJ
 L  c1
 L  c2
 L  c3
 L  c4
 L  c5
COLUMNS
    MARKER    'MARKER'                 'INTORG'
    x[1]      c1        777
    x[1]      c2        833
    x[1]      c3        616
    x[1]      c4        452
    x[1]      c5        827
    x[1]      OBJ       -551
    x[2]      c1        483
    x[2]      c2        568
    x[2]      c3        142
    x[2]      c4        378
    x[2]      c5        692
    x[2]      OBJ       -446
    x[3]      c1        961
    x[3]      c2        112
    x[3]      c3        578
    x[3]      c4        460
    x[3]      c5        971
    x[3]      OBJ       -478
    x[4]      c1        525
    x[4]      c2        530
    x[4]      c3        244
    x[4]      c4        354
    x[4]      c5        453
    x[4]      OBJ       -399
    x[5]      c1        30
    x[5]      c2        408
    x[5]      c3        65
    x[5]      c4        173
    x[5]      c5        841
    x[5]      OBJ       -798
    x[6]      c1        596
    x[6]      c2        136
    x[6]      c3        613
    x[6]      c4        765
    x[6]      c5        551
    x[6]      OBJ       -287
    x[7]      c1        703
    x[7]      c2        323
    x[7]      c3        291
    x[7]      c4        820
    x[7]      c5        231
    x[7]      OBJ       -582
    x[8]      c1        939
    x[8]      c2        817
    x[8]      c3        329
    x[8]      c4        460
    x[8]      c5        923
    x[8]      OBJ       -278
    x[9]      c1        200
    x[9]      c2        160
    x[9]      c3        238
    x[9]      c4        65
    x[9]      c5        945
    x[9]      OBJ       -438
    x[10]     c1        764
    x[10]     c2        58
    x[10]     c3        852
    x[10]     c4        563
    x[10]     c5        267
    x[10]     OBJ       -677
    x[11]     c1        468
    x[11]     c2        854
    x[11]     c3        248
    x[11]     c4        86
    x[11]     c5        670
    x[11]     OBJ       -194
    x[12]     c1        608
    x[12]     c2        623
    x[12]     c3        200
    x[12]     c4        208
    x[12]     c5        506
    x[12]     OBJ       -96
    x[13]     c1        23
    x[13]     c2        817
    x[13]     c3        48
    x[13]     c4        674
    x[13]     c5        591
    x[13]     OBJ       -426
    x[14]     c1        889
    x[14]     c2        534
    x[14]     c3        566
    x[14]     c4        930
    x[14]     c5        206
    x[14]     OBJ       -930
    x[15]     c1        323
    x[15]     c2        501
    x[15]     c3        199
    x[15]     c4        716
    x[15]     c5        640
    x[15]     OBJ       -355
    x[16]     c1        147
    x[16]     c2        212
    x[16]     c3        622
    x[16]     c4        800
    x[16]     c5        238
    x[16]     OBJ       -794
    x[17]     c1        931
    x[17]     c2        63
    x[17]     c3        583
    x[17]     c4        824
    x[17]     c5        260
    x[17]     OBJ       -212
    x[18]     c1        895
    x[18]     c2        979
    x[18]     c3        667
    x[18]     c4        188
    x[18]     c5        101
    x[18]     OBJ       -778
    x[19]     c1        601
    x[19]     c2        730
    x[19]     c3        127
    x[19]     c4        950
    x[19]     c5        888
    x[19]     OBJ       -303
    x[20]     c1        312
    x[20]     c2        158
    x[20]     c3        525
    x[20]     c4        760
    x[20]     c5        456
    x[20]     OBJ       -116
    x[21]     c1        936
    x[21]     c2        467
    x[21]     c3        725
    x[21]     c4        910
    x[21]     c5        593
    x[21]     OBJ       -434
    x[22]     c1        164
    x[22]     c2        68
    x[22]     c3        124
    x[22]     c4        309
    x[22]     c5        402
    x[22]     OBJ       -350
    x[23]     c1        831
    x[23]     c2        724
    x[23]     c3        925
    x[23]     c4        199
    x[23]     c5        106
    x[23]     OBJ       -646
    x[24]     c1        542
    x[24]     c2        319
    x[24]     c3        576
    x[24]     c4        292
    x[24]     c5        842
    x[24]     OBJ       -676
    x[25]     c1        6
    x[25]     c2        330
    x[25]     c3        436
    x[25]     c4        171
    x[25]     c5        426
    x[25]     OBJ       -680
    x[26]     c1        659
    x[26]     c2        118
    x[26]     c3        26
    x[26]     c4        445
    x[26]     c5        659
    x[26]     OBJ       -489
    x[27]     c1        462
    x[27]     c2        262
    x[27]     c3        657
    x[27]     c4        109
    x[27]     c5        381
    x[27]     OBJ       -780
    x[28]     c1        872
    x[28]     c2        1000
    x[28]     c3        521
    x[28]     c4        721
    x[28]     c5        367
    x[28]     OBJ       -615
    x[29]     c1        553
    x[29]     c2        263
    x[29]     c3        705
    x[29]     c4        503
    x[29]     c5        738
    x[29]     OBJ       -484
    x[30]     c1        98
    x[30]     c2        978
    x[30]     c3        706
    x[30]     c4        313
    x[30]     c5        432
    x[30]     OBJ       -493
    x[31]     c1        438
    x[31]     c2        730
    x[31]     c3        510
    x[31]     c4        941
    x[31]     c5        275
    x[31]     OBJ       -901
    x[32]     c1        338
    x[32]     c2        992
    x[32]     c3        581
    x[32]     c4        237
    x[32]     c5        610
    x[32]     OBJ       -893
    x[33]     c1        635
    x[33]     c2        858
    x[33]     c3        192
    x[33]     c4        826
    x[33]     c5        333
    x[33]     OBJ       -805
    x[34]     c1        461
    x[34]     c2        153
    x[34]     c3        505
    x[34]     c4        355
    x[34]     c5        76
    x[34]     OBJ       -765
    x[35]     c1        619
    x[35]     c2        426
    x[35]     c3        283
    x[35]     c4        971
    x[35]     c5        761
    x[35]     OBJ       -290
    x[36]     c1        339
    x[36]     c2        898
    x[36]     c3        615
    x[36]     c4        214
    x[36]     c5        45
    x[36]     OBJ       -393
    x[37]     c1        391
    x[37]     c2        240
    x[37]     c3        80
    x[37]     c4        643
    x[37]     c5        388
    x[37]     OBJ       -398
    x[38]     c1        590
    x[38]     c2        955
    x[38]     c3        256
    x[38]     c4        633
    x[38]     c5        820
    x[38]     OBJ       -238
    x[39]     c1        249
    x[39]     c2        473
    x[39]     c3        727
    x[39]     c4        367
    x[39]     c5        444
    x[39]     OBJ       -366
    x[40]     c1        328
    x[40]     c2        495
    x[40]     c3        111
    x[40]     c4        658
    x[40]     c5        732
    x[40]     OBJ       -474
RHS
    rhs       c1        10343
    rhs       c2        10082
    rhs       c3        8507
    rhs       c4        10222
    rhs       c5        10344
RANGES
BOUNDS
 BV bounds    x[1]
 BV bounds    x[2]
 BV bounds    x[3]
 BV bounds    x[4]
 BV bounds    x[5]
 BV bounds    x[6]
 BV bounds    x[7]
 BV bounds    x[8]
 BV bounds    x[9]
 BV bounds    x[10]
 BV bounds    x[11]
 BV bounds    x[12]
 BV bounds    x[13]
 BV bounds    x[14]
 BV bounds    x[15]
 BV bounds    x[16]
 BV bounds    x[17]
 BV bounds    x[18]
 BV bounds    x[19]
 BV bounds    x[20]
 BV bounds    x[21]
 BV bounds    x[22]
 BV bounds    x[23]
 BV bounds    x[24]
 BV bounds    x[25]
 BV bounds    x[26]
 BV bounds    x[27]
 BV bounds    x[28]
 BV bounds    x[29]
 BV bounds    x[30]
 BV bounds    x[31]
 BV bounds    x[32]
 BV bounds    x[33]
 BV bounds    x[34]
 BV bounds    x[35]
 BV bounds    x[36]
 BV bounds    x[37]
 BV bounds    x[38]
 BV bounds    x[39]
 BV bounds    x[40]
ENDATA
